161 5
10 10 10 10 10 

0 0 0 0 0 0 5 2 24 46 68 80 
0 0 0 0 0 0 1 3 
10 1 1 0 0 0 2 14 4 
4 1 2 0 0 0 2 16 5 
6 2 3 0 0 0 1 6 
2 3 3 0 0 0 1 7 
4 1 1 0 0 0 2 19 8 
3 4 3 0 0 0 1 9 
5 1 1 0 0 0 1 10 
4 3 3 0 0 0 2 22 11 
8 3 2 0 0 0 1 12 
10 2 1 0 0 0 2 21 13 
10 4 5 0 0 0 1 15 
8 4 1 0 0 0 2 21 18 
10 2 5 0 0 0 1 17 
10 2 2 0 0 0 2 22 20 
8 3 3 0 0 0 1 18 
2 2 4 0 0 0 1 20 
3 1 3 0 0 0 1 22 
4 3 1 0 0 0 1 23 
8 6 3 0 0 0 1 23 
5 2 3 0 0 0 1 23 
0 0 0 0 0 0 1 126 
0 0 0 0 0 0 1 25 
5 0 0 0 1 1 2 33 26 
6 0 0 0 3 2 1 27 
8 0 0 0 4 1 1 28 
8 0 0 0 2 2 2 35 29 
2 0 0 0 2 2 1 30 
2 0 0 0 3 2 2 37 31 
2 0 0 0 1 2 1 32 
6 0 0 0 3 3 2 41 34 
8 0 0 0 2 1 2 41 34 
4 0 0 0 2 3 1 36 
5 0 0 0 2 2 1 37 
4 0 0 0 3 2 2 42 38 
1 0 0 0 4 6 2 41 38 
6 0 0 0 1 4 1 39 
6 0 0 0 3 3 1 40 
2 0 0 0 3 4 1 43 
4 0 0 0 2 4 1 43 
9 0 0 0 3 1 1 43 
8 0 0 0 4 3 1 44 
4 0 0 0 2 2 1 45 
0 0 0 0 0 0 1 126 
0 0 0 0 0 0 4 47 64 65 66 
1 0 0 1 0 1 1 48 
4 0 0 3 0 5 1 49 
2 0 0 2 0 1 2 63 50 
2 0 0 1 0 4 1 51 
3 0 0 1 0 1 1 52 
5 0 0 1 0 3 2 62 53 
8 0 0 4 0 3 1 54 
9 0 0 3 0 1 1 55 
9 0 0 1 0 2 1 56 
3 0 0 2 0 4 1 57 
9 0 0 3 0 3 1 58 
4 0 0 5 0 2 1 59 
5 0 0 2 0 4 1 60 
4 0 0 3 0 2 1 61 
1 0 0 2 0 2 1 67 
6 0 0 3 0 2 1 67 
3 0 0 3 0 2 1 67 
4 0 0 7 0 2 1 67 
2 0 0 2 0 2 1 67 
2 0 0 1 0 4 1 67 
0 0 0 0 0 0 1 126 
0 0 0 0 0 0 2 69 72 
5 0 1 0 0 0 1 70 
10 0 1 0 0 0 2 78 71 
7 0 3 0 0 0 1 73 
2 0 3 0 0 0 1 73 
5 0 4 0 0 0 2 77 74 
2 0 3 0 0 0 1 75 
6 0 3 0 0 0 1 76 
4 0 1 0 0 0 1 79 
8 0 2 0 0 0 1 79 
10 0 4 0 0 0 1 79 
0 0 0 0 0 0 2 102 114 
0 0 0 0 0 0 1 81 
4 0 1 1 0 0 2 84 82 
1 0 2 2 0 0 1 83 
7 0 6 2 0 0 1 85 
7 0 2 1 0 0 1 85 
5 0 2 4 0 0 1 86 
10 0 2 4 0 0 1 87 
10 0 5 4 0 0 2 89 88 
2 0 2 1 0 0 1 90 
6 0 2 1 0 0 1 90 
4 0 2 1 0 0 2 92 91 
10 0 4 4 0 0 2 95 93 
4 0 2 3 0 0 2 95 94 
3 0 2 3 0 0 1 94 
4 0 2 3 0 0 2 98 96 
1 0 3 4 0 0 2 98 96 
2 0 2 2 0 0 1 97 
5 0 3 2 0 0 1 99 
8 0 3 3 0 0 1 99 
6 0 1 3 0 0 1 100 
8 0 2 2 0 0 1 101 
0 0 0 0 0 0 1 126 
0 0 0 0 0 0 1 103 
3 1 0 0 0 0 2 106 104 
2 3 0 0 0 0 1 105 
5 5 0 0 0 0 2 108 107 
6 2 0 0 0 0 2 110 108 
2 2 0 0 0 0 2 110 109 
4 2 0 0 0 0 1 109 
2 2 0 0 0 0 1 111 
4 3 0 0 0 0 1 111 
9 2 0 0 0 0 1 112 
10 3 0 0 0 0 1 113 
0 0 0 0 0 0 1 126 
0 0 0 0 0 0 1 115 
2 0 0 0 0 1 2 117 116 
10 0 0 0 0 4 2 124 118 
10 0 0 0 0 3 2 124 118 
7 0 0 0 0 3 1 119 
2 0 0 0 0 1 1 120 
3 0 0 0 0 3 2 123 121 
6 0 0 0 0 3 1 122 
2 0 0 0 0 2 1 125 
7 0 0 0 0 3 1 125 
4 0 0 0 0 2 1 125 
0 0 0 0 0 0 1 126 
0 0 0 0 0 0 2 127 130 
4 0 0 1 0 0 1 128 
4 0 0 3 0 0 2 131 129 
1 0 0 3 0 0 2 133 132 
4 0 0 3 0 0 1 131 
1 0 0 3 0 0 1 133 
2 0 0 2 0 0 1 134 
1 0 0 1 0 0 1 135 
10 0 0 3 0 0 1 135 
4 0 0 3 0 0 1 136 
5 0 0 3 0 0 1 137 
0 0 0 0 0 0 1 138 
0 0 0 0 0 0 3 139 142 144 
1 0 0 1 0 0 1 140 
8 0 0 1 0 0 1 141 
8 0 0 3 0 0 2 148 143 
5 0 0 3 0 0 2 148 145 
6 0 0 2 0 0 1 145 
2 0 0 3 0 0 1 145 
7 0 0 2 0 0 1 146 
8 0 0 5 0 0 1 147 
9 0 0 3 0 0 1 149 
4 0 0 2 0 0 1 149 
0 0 0 0 0 0 1 150 
0 0 0 0 0 0 2 151 153 
6 0 0 0 1 0 2 154 152 
10 0 0 0 3 0 1 155 
2 0 0 0 2 0 1 154 
2 0 0 0 4 0 1 156 
5 0 0 0 3 0 1 156 
3 0 0 0 2 0 2 159 157 
4 0 0 0 1 0 1 158 
8 0 0 0 3 0 1 160 
2 0 0 0 3 0 1 160 
7 0 0 0 3 0 1 161 
0 0 0 0 0 0 0 
